data/solutions/recovery/wellformed/moderate/flexible/wellformed_moderate_instance64/23.sol
Elapsed time: 43.29
Upper bound: 4861.0
Planning weighted value: 170192.0
C[0]=4861.0
C[1]=4861.0
C[2]=4861.0
C[3]=4861.0
C[4]=0.0
y[0]=0
y[1]=0
y[2]=1
y[3]=0
y[4]=2
y[5]=1
y[6]=1
y[7]=0
y[8]=0
y[9]=2
y[10]=3
y[11]=3
y[12]=3
y[13]=3
y[14]=1
y[15]=3
y[16]=2
y[17]=1
y[18]=3
y[19]=3
y[20]=2
y[21]=0
y[22]=2
y[23]=3
y[24]=0
y[25]=2
y[26]=3
y[27]=1
y[28]=1
y[29]=1
y[30]=0
y[31]=2
y[32]=2
y[33]=0
y[34]=2
y[35]=0
y[36]=2
y[37]=1
y[38]=0
y[39]=1
y[40]=2
