data/solutions/recovery/wellformed/moderate/flexible/wellformed_moderate_instance64/23.log

Log started (V12.6.3.0) Fri Apr 20 20:09:01 2018

New value for default parallel thread count: 1

Problem '/tmp/tmpwQfW1I.pyomo.lp' read.
Read time = 0.00 sec. (0.08 ticks)

Problem name         : /tmp/tmpwQfW1I.pyomo.lp
Objective sense      : Minimize
Variables            :     212  [Nneg: 1,  Binary: 205,  General Integer: 6]
Objective nonzeros   :       1
Linear constraints   :      94  [Less: 46,  Equal: 48]
  Nonzeros           :    5367
  RHS nonzeros       :      83

Variables            : Min LB: 0.000000         Max UB: 1.000000       
Objective nonzeros   : Min   : 1.000000         Max   : 1.000000       
Linear constraints   :
  Nonzeros           : Min   : 1.000000         Max   : 1963.000       
  RHS nonzeros       : Min   : 1.000000         Max   : 5.000000       
Tried aggregator 2 times.
MIP Presolve eliminated 45 rows and 56 columns.
Aggregator did 7 substitutions.
Reduced MIP has 42 rows, 149 columns, and 381 nonzeros.
Reduced MIP has 148 binaries, 1 generals, 0 SOSs, and 0 indicators.
Presolve time = 0.00 sec. (1.37 ticks)
Found incumbent of value 19444.000000 after 0.00 sec. (1.67 ticks)
Probing time = 0.00 sec. (0.12 ticks)
Cover probing fixed 0 vars, tightened 6 bounds.
Tried aggregator 1 time.
Reduced MIP has 42 rows, 149 columns, and 381 nonzeros.
Reduced MIP has 148 binaries, 1 generals, 0 SOSs, and 0 indicators.
Presolve time = 0.00 sec. (0.27 ticks)
Probing time = 0.00 sec. (0.08 ticks)
Clique table members: 37.
MIP emphasis: balance optimality and feasibility.
MIP search method: dynamic search.
Parallel mode: none, using 1 thread.
Root relaxation solution time = 0.00 sec. (0.16 ticks)

        Nodes                                         Cuts/
   Node  Left     Objective  IInf  Best Integer    Best Bound    ItCnt     Gap

*     0+    0                        19444.0000     1963.0000            89.90%
      0     0     4861.0000     6    19444.0000     4861.0000       17   75.00%
*     0+    0                         5061.0000     4861.0000             3.95%
      0     0     4861.0000     8     5061.0000      Fract: 3       22    3.95%
*     0+    0                         5038.0000     4861.0000             3.51%
      0     0     4861.0000    12     5038.0000       Cuts: 9       29    3.51%
*     0+    0                         4956.0000     4861.0000             1.92%
*     0+    0                         4944.0000     4861.0000             1.68%
*     0+    0                         4922.0000     4861.0000             1.24%
      0     2     4861.0000     5     4922.0000     4861.0000       29    1.24%
Elapsed time = 0.01 sec. (6.83 ticks, tree = 0.01 MB, solutions = 6)
*    70+   37                         4897.0000     4861.0000             0.74%
*   400+  227                         4874.0000     4861.0000             0.27%
*   613+  188                         4873.0000     4861.0000             0.25%
*   713+  161                         4871.0000     4861.0000             0.21%
*   913+  163                         4869.0000     4861.0000             0.16%
*  1313+  160                         4863.0000     4861.0000             0.04%
   1713   326     4861.0000     8     4863.0000     4861.0000     3744    0.04%
   1714   327     4861.0000     8     4863.0000     4861.0000     3744    0.04%
   1715   326        cutoff           4863.0000     4861.0000     3748    0.04%
   1716   325    infeasible           4863.0000     4861.0000     3748    0.04%
   1717   325     4861.0000     8     4863.0000     4861.0000     3750    0.04%
   1718   326     4861.0000     6     4863.0000     4861.0000     3751    0.04%
   1719   327     4861.0000     6     4863.0000     4861.0000     3752    0.04%
   1720   328     4861.0000     6     4863.0000     4861.0000     3753    0.04%
   1721   329     4861.0000     6     4863.0000     4861.0000     3754    0.04%
   7143  1471     4861.0000     8     4863.0000     4861.0000    15217    0.04%
Elapsed time = 1.23 sec. (960.60 ticks, tree = 0.44 MB, solutions = 12)
* 14826  1805      integral     0     4862.0000     4861.0000    33476    0.02%
  17771  2107    infeasible           4862.0000     4861.0000    40894    0.02%
  17772  2106    infeasible           4862.0000     4861.0000    40896    0.02%
  17773  2105    infeasible           4862.0000     4861.0000    40896    0.02%
  17774  2104    infeasible           4862.0000     4861.0000    40896    0.02%
  17775  2103    infeasible           4862.0000     4861.0000    40896    0.02%
  17776  2102    infeasible           4862.0000     4861.0000    40897    0.02%
  17777  2101    infeasible           4862.0000     4861.0000    40899    0.02%
  17778  2100    infeasible           4862.0000     4861.0000    40902    0.02%
  17779  2099    infeasible           4862.0000     4861.0000    40906    0.02%
  17780  2098    infeasible           4862.0000     4861.0000    40910    0.02%
Elapsed time = 2.50 sec. (1914.83 ticks, tree = 0.67 MB, solutions = 13)
  30884  3739    infeasible           4862.0000     4861.0000    71376    0.02%
  30885  3738    infeasible           4862.0000     4861.0000    71379    0.02%
  30886  3737    infeasible           4862.0000     4861.0000    71381    0.02%
  30887  3736    infeasible           4862.0000     4861.0000    71390    0.02%
  30888  3735    infeasible           4862.0000     4861.0000    71394    0.02%
  30889  3736     4861.0000     6     4862.0000     4861.0000    71408    0.02%
  30890  3735    infeasible           4862.0000     4861.0000    71409    0.02%
  30891  3734    infeasible           4862.0000     4861.0000    71411    0.02%
  30892  3733    infeasible           4862.0000     4861.0000    71413    0.02%
  30893  3732    infeasible           4862.0000     4861.0000    71416    0.02%
Elapsed time = 3.70 sec. (2869.56 ticks, tree = 1.10 MB, solutions = 13)
  43471  4912    infeasible           4862.0000     4861.0000   101006    0.02%
  43472  4911    infeasible           4862.0000     4861.0000   101006    0.02%
  43473  4911     4861.0000     8     4862.0000     4861.0000   101009    0.02%
  43474  4910    infeasible           4862.0000     4861.0000   101010    0.02%
  43475  4909    infeasible           4862.0000     4861.0000   101014    0.02%
  43476  4909     4861.0000     6     4862.0000     4861.0000   101015    0.02%
  43477  4910     4861.0000     6     4862.0000     4861.0000   101017    0.02%
  43478  4909    infeasible           4862.0000     4861.0000   101019    0.02%
  43479  4908    infeasible           4862.0000     4861.0000   101020    0.02%
  43480  4907    infeasible           4862.0000     4861.0000   101020    0.02%
Elapsed time = 4.90 sec. (3824.22 ticks, tree = 1.51 MB, solutions = 13)
  56322  5839     4861.0000     6     4862.0000     4861.0000   129858    0.02%
  56323  5840     4861.0000     6     4862.0000     4861.0000   129859    0.02%
  56324  5841     4861.0000     6     4862.0000     4861.0000   129861    0.02%
  56325  5842     4861.0000     6     4862.0000     4861.0000   129862    0.02%
  56326  5841    infeasible           4862.0000     4861.0000   129866    0.02%
  56327  5840    infeasible           4862.0000     4861.0000   129870    0.02%
  56328  5839    infeasible           4862.0000     4861.0000   129879    0.02%
  56329  5838    infeasible           4862.0000     4861.0000   129883    0.02%
  56330  5837    infeasible           4862.0000     4861.0000   129892    0.02%
  56331  5836    infeasible           4862.0000     4861.0000   129898    0.02%
Elapsed time = 6.11 sec. (4779.27 ticks, tree = 1.76 MB, solutions = 13)
  70893  6168     4861.0000     6     4862.0000     4861.0000   161644    0.02%
  70894  6169     4861.0000     6     4862.0000     4861.0000   161645    0.02%
  70895  6170     4861.0000     6     4862.0000     4861.0000   161646    0.02%
  70896  6169    infeasible           4862.0000     4861.0000   161651    0.02%
  70897  6168    infeasible           4862.0000     4861.0000   161655    0.02%
  70898  6167    infeasible           4862.0000     4861.0000   161656    0.02%
  70899  6166    infeasible           4862.0000     4861.0000   161657    0.02%
  70900  6165    infeasible           4862.0000     4861.0000   161658    0.02%
  70901  6166     4861.0000     6     4862.0000     4861.0000   161659    0.02%
  70902  6167     4861.0000     6     4862.0000     4861.0000   161660    0.02%
Elapsed time = 7.31 sec. (5733.83 ticks, tree = 1.84 MB, solutions = 13)
  86180  9944     4861.0000     4     4862.0000     4861.0000   193080    0.02%
  86181  9945     4861.0000     4     4862.0000     4861.0000   193081    0.02%
  86182  9946     4861.0000     4     4862.0000     4861.0000   193082    0.02%
  86183  9947     4861.0000     4     4862.0000     4861.0000   193083    0.02%
  86184  9946    infeasible           4862.0000     4861.0000   193086    0.02%
  86185  9945    infeasible           4862.0000     4861.0000   193088    0.02%
  86186  9944    infeasible           4862.0000     4861.0000   193090    0.02%
  86187  9945     4861.0000     4     4862.0000     4861.0000   193092    0.02%
  86188  9944    infeasible           4862.0000     4861.0000   193096    0.02%
  86189  9943    infeasible           4862.0000     4861.0000   193100    0.02%
Elapsed time = 8.51 sec. (6688.33 ticks, tree = 3.08 MB, solutions = 13)
 100629 11466     4861.0000     6     4862.0000     4861.0000   224787    0.02%
 100630 11467     4861.0000     6     4862.0000     4861.0000   224788    0.02%
 100631 11468     4861.0000     6     4862.0000     4861.0000   224789    0.02%
 100632 11469     4861.0000     6     4862.0000     4861.0000   224790    0.02%
 100633 11470     4861.0000     6     4862.0000     4861.0000   224791    0.02%
 100634 11471     4861.0000     6     4862.0000     4861.0000   224792    0.02%
 100635 11472     4861.0000     6     4862.0000     4861.0000   224793    0.02%
 100636 11471    infeasible           4862.0000     4861.0000   224793    0.02%
 100637 11472     4861.0000     6     4862.0000     4861.0000   224795    0.02%
 100638 11473     4861.0000     6     4862.0000     4861.0000   224796    0.02%
Elapsed time = 9.70 sec. (7642.29 ticks, tree = 3.48 MB, solutions = 13)
 115718 12015     4861.0000     6     4862.0000     4861.0000   256200    0.02%
 115719 12016     4861.0000     6     4862.0000     4861.0000   256201    0.02%
 115720 12017     4861.0000     6     4862.0000     4861.0000   256203    0.02%
 115721 12018     4861.0000     6     4862.0000     4861.0000   256204    0.02%
 115722 12019     4861.0000     6     4862.0000     4861.0000   256205    0.02%
 115723 12018    infeasible           4862.0000     4861.0000   256208    0.02%
 115724 12019     4861.0000     8     4862.0000     4861.0000   256210    0.02%
 115725 12018    infeasible           4862.0000     4861.0000   256219    0.02%
 115726 12017    infeasible           4862.0000     4861.0000   256226    0.02%
 115727 12018     4861.0000     7     4862.0000     4861.0000   256228    0.02%
Elapsed time = 10.90 sec. (8596.68 ticks, tree = 3.63 MB, solutions = 13)
 131184 13061    infeasible           4862.0000     4861.0000   286316    0.02%
 131185 13060    infeasible           4862.0000     4861.0000   286319    0.02%
 131186 13061     4861.0000     6     4862.0000     4861.0000   286321    0.02%
 131187 13062     4861.0000     6     4862.0000     4861.0000   286322    0.02%
 131188 13063     4861.0000     5     4862.0000     4861.0000   286323    0.02%
 131189 13064     4861.0000     5     4862.0000     4861.0000   286324    0.02%
 131190 13065     4861.0000     5     4862.0000     4861.0000   286327    0.02%
 131191 13066     4861.0000     6     4862.0000     4861.0000   286331    0.02%
 131192 13067     4861.0000     5     4862.0000     4861.0000   286333    0.02%
 175998 17036    infeasible           4862.0000     4861.0000   378747    0.02%
Elapsed time = 15.64 sec. (12411.41 ticks, tree = 5.39 MB, solutions = 13)
 237466 16950     4861.0000     6     4862.0000     4861.0000   510346    0.02%
 237467 16951     4861.0000     6     4862.0000     4861.0000   510347    0.02%
 237468 16952     4861.0000     8     4862.0000     4861.0000   510349    0.02%
 237469 16953     4861.0000     6     4862.0000     4861.0000   510352    0.02%
 237470 16954     4861.0000     4     4862.0000     4861.0000   510355    0.02%
 237471 16955     4861.0000     8     4862.0000     4861.0000   510356    0.02%
 237472 16956     4861.0000     6     4862.0000     4861.0000   510358    0.02%
 237473 16957     4861.0000     8     4862.0000     4861.0000   510359    0.02%
 237474 16956    infeasible           4862.0000     4861.0000   510362    0.02%
 237475 16956     4861.0000     6     4862.0000     4861.0000   510363    0.02%
Elapsed time = 20.42 sec. (16226.51 ticks, tree = 5.34 MB, solutions = 13)
 296464 21942     4861.0000     6     4862.0000     4861.0000   631218    0.02%
 296465 21943     4861.0000     8     4862.0000     4861.0000   631220    0.02%
 296466 21944     4861.0000     6     4862.0000     4861.0000   631223    0.02%
 296467 21945     4861.0000     8     4862.0000     4861.0000   631225    0.02%
 296468 21946     4861.0000     8     4862.0000     4861.0000   631226    0.02%
 296469 21947     4861.0000     6     4862.0000     4861.0000   631228    0.02%
 296470 21948     4861.0000     6     4862.0000     4861.0000   631229    0.02%
 296471 21949     4861.0000     6     4862.0000     4861.0000   631230    0.02%
 296472 21950     4861.0000     6     4862.0000     4861.0000   631232    0.02%
 296473 21951     4861.0000     6     4862.0000     4861.0000   631235    0.02%
Elapsed time = 25.14 sec. (20041.55 ticks, tree = 6.64 MB, solutions = 13)
 355620 25582     4861.0000     4     4862.0000     4861.0000   756412    0.02%
 355621 25583     4861.0000     4     4862.0000     4861.0000   756413    0.02%
 355622 25584     4861.0000     4     4862.0000     4861.0000   756414    0.02%
 355623 25585     4861.0000     4     4862.0000     4861.0000   756415    0.02%
 355624 25584    infeasible           4862.0000     4861.0000   756419    0.02%
 355625 25583    infeasible           4862.0000     4861.0000   756422    0.02%
 355626 25582    infeasible           4862.0000     4861.0000   756424    0.02%
 355627 25581    infeasible           4862.0000     4861.0000   756427    0.02%
 355628 25582     4861.0000     4     4862.0000     4861.0000   756428    0.02%
 355629 25583     4861.0000     4     4862.0000     4861.0000   756429    0.02%
Elapsed time = 29.79 sec. (23857.12 ticks, tree = 7.60 MB, solutions = 13)
 414184 28643     4861.0000     6     4862.0000     4861.0000   877565    0.02%
 414185 28644     4861.0000     6     4862.0000     4861.0000   877566    0.02%
 414186 28645     4861.0000     6     4862.0000     4861.0000   877568    0.02%
 414187 28646     4861.0000     6     4862.0000     4861.0000   877569    0.02%
 414188 28647     4861.0000     6     4862.0000     4861.0000   877571    0.02%
 414189 28646    infeasible           4862.0000     4861.0000   877577    0.02%
 414190 28647     4861.0000     6     4862.0000     4861.0000   877579    0.02%
 414191 28646    infeasible           4862.0000     4861.0000   877581    0.02%
 414192 28645    infeasible           4862.0000     4861.0000   877582    0.02%
 414193 28645     4861.0000     7     4862.0000     4861.0000   877585    0.02%
Elapsed time = 34.54 sec. (27672.63 ticks, tree = 8.37 MB, solutions = 13)
 473084 31987     4861.0000     4     4862.0000     4861.0000   993993    0.02%
 473085 31988     4861.0000     4     4862.0000     4861.0000   993995    0.02%
 473086 31989     4861.0000     4     4862.0000     4861.0000   993996    0.02%
 473087 31988    infeasible           4862.0000     4861.0000   994000    0.02%
 473088 31987    infeasible           4862.0000     4861.0000   994002    0.02%
 473089 31986    infeasible           4862.0000     4861.0000   994006    0.02%
 473090 31985    infeasible           4862.0000     4861.0000   994009    0.02%
 473091 31986     4861.0000     4     4862.0000     4861.0000   994012    0.02%
 473092 31987     4861.0000     4     4862.0000     4861.0000   994016    0.02%
 473093 31986    infeasible           4862.0000     4861.0000   994016    0.02%
Elapsed time = 39.27 sec. (31487.84 ticks, tree = 9.25 MB, solutions = 13)
*522526     0      integral     0     4861.0000     4861.0000  1092102    0.00%

Cover cuts applied:  2
Mixed integer rounding cuts applied:  1
Gomory fractional cuts applied:  1

Root node processing (before b&c):
  Real time             =    0.01 sec. (6.88 ticks)
Sequential b&c:
  Real time             =   43.27 sec. (34784.78 ticks)
                          ------------
Total (root+branch&cut) =   43.28 sec. (34791.66 ticks)

Solution pool: 14 solutions saved.

MIP - Integer optimal solution:  Objective =  4.8610000000e+03
Solution time =   43.28 sec.  Iterations = 1092102  Nodes = 522527
Deterministic time = 34791.66 ticks  (803.88 ticks/sec)


Incumbent solution written to file '/tmp/tmpoAziu3.cplex.sol'.
